3 3 2
25 0 84 2 7 0 34 1 60 2 59 0 78 2 130 1 50 2 1 1 51 0 1 1 40 0 181 1 116 2 161 0 170 2 108 0 138 1 69 0 46 2 150 1 181 0 46 1 9 2 153 
25 0 100 1 91 2 189 0 118 2 141 1 100 0 137 1 77 2 116 1 81 0 54 2 176 1 55 2 195 0 172 1 183 2 44 1 164 2 67 0 63 2 24 1 64 2 66 0 117 1 140 
25 0 46 2 116 1 50 2 4 0 47 2 141 0 130 2 23 0 34 2 64 0 84 1 129 0 101 1 69 0 152 2 189 0 6 2 159 0 68 1 109 2 4 1 83 0 115 1 46 0 43 

-------------
